route
19
59
52
50
40
51
42
36
54
27
10
4
66
45
33
14
2
32
11
29
34
24
8
17
56
75
64
61
71
18
3
74
9
31
35
12
70
28
55
72
65
49
21
46
43
5
1
30
37
26
0
22
53
25
13
38
57
44
15
67
60
47
7
58
23
48
68
78
39
73
62
16
20
41
69
6
76
77
63
